sat
(:added-eqs                       25182
 :arith-eq-adapter                1288
 :arith-bound-propagations-lp     1303
 :arith-branch                    68
 :arith-conflicts                 3422
 :arith-cube-calls                25
 :arith-diseq                     6275
 :arith-fixed-eqs                 4525
 :arith-gcd-calls                 384
 :arith-gomory-cuts               40
 :arith-grobner-calls             415
 :arith-grobner-conflicts         124
 :arith-hnf-calls                 4
 :arith-horner-calls              109
 :arith-horner-cross-nested-forms 19329
 :arith-lower                     11177
 :arith-make-feasible             9732
 :arith-max-columns               1320
 :arith-max-rows                  704
 :arith-nla-add-bounds            168
 :arith-nla-lemmas                1795
 :arith-nla-propagate-bounds      1257
 :arith-nla-propagate-eq          18126
 :arith-nra-calls                 48
 :arith-offset-eqs                2371
 :arith-patches                   384
 :arith-patches-success           284
 :arith-upper                     10004
 :binary-propagations             47921
 :cnf-encoding-aux-vars           11
 :conflicts                       598
 :decisions                       120065
 :del-clause                      3923
 :elim-unconstrained              136
 :final-checks                    1178
 :max-memory                      33.97
 :memory                          19.56
 :minimized-lits                  546
 :mk-bool-var                     9491
 :mk-clause                       5760
 :mk-clause-binary                10796
 :nlsat-conflicts                 4867
 :nlsat-decisions                 141
 :nlsat-propagations              199348
 :nlsat-restarts                  3
 :nlsat-stages                    106527
 :num-allocs                      1792383439
 :num-checks                      1
 :propagations                    76377
 :restarts                        5
 :rlimit-count                    3735980
 :solve-eqs-elim-vars             79
 :solve-eqs-steps                 1208
 :time                            2.06
 :total-time                      2.08)
